Route #1: 12 45 52 22 54 55 15 56 58
Route #2: 13 28 5 21 25 63
Route #3: 48 9 16 41 51 24 29
Route #4: 59 8 23 37 65 32
Route #5: 39 36 1 49 35 19 20 14
Route #6: 46 4 11 50 7
Route #7: 53 42 44 40 34 6 64
Route #8: 60 3 57 30 61 62
Route #9: 17 38 10 27 43 66 2 26
Route #10: 31 18 33 47
Cost 1092